nK = 1096;
nT = 4;
nI = 7;
L = 35;
TT = 250;
np = 1;
nc = 3;
b = [50, 37, 22, 48, 35, 29, 68];
d = [113, 144, 128, 83, 55, 94, 149];
m = [1.5, 2, 1.2, 2.1, 1.5, 1.9, 1.2];
pt = [0.32, 0.33, 0.22, 0.32];
st = [17.6, 19.8, 8.8, 18.56];
arc = {<1, 0, 1, 1, 0, 0, 0, [1, 1, 1, 1]>, <2, 1, 2, 1, 0, 0, 0, [1, 1, 1, 1]>, <3, 2, 3, 1, 0, 0, 0, [1, 1, 1, 1]>, <4, 3, 4, 1, 0, 0, 0, [1, 1, 1, 1]>, <5, 4, 5, 1, 0, 0, 0, [1, 1, 1, 1]>, <6, 5, 6, 1, 0, 0, 0, [1, 1, 1, 1]>, <7, 6, 7, 1, 0, 0, 0, [1, 1, 1, 1]>, <8, 7, 8, 1, 0, 0, 0, [1, 1, 1, 1]>, <9, 8, 9, 1, 0, 0, 0, [1, 1, 1, 1]>, <10, 9, 10, 1, 0, 0, 0, [1, 1, 1, 1]>, <11, 10, 11, 1, 0, 0, 0, [1, 1, 1, 1]>, <12, 11, 12, 1, 0, 0, 0, [1, 1, 1, 1]>, <13, 12, 13, 1, 0, 0, 0, [1, 1, 1, 1]>, <14, 13, 14, 1, 0, 0, 0, [1, 1, 1, 1]>, <15, 14, 15, 1, 0, 0, 0, [1, 1, 1, 1]>, <16, 15, 16, 1, 0, 0, 0, [1, 1, 1, 1]>, <17, 16, 17, 1, 0, 0, 0, [1, 1, 1, 1]>, <18, 17, 18, 1, 0, 0, 0, [1, 1, 1, 1]>, <19, 18, 19, 1, 0, 0, 0, [1, 1, 1, 1]>, <20, 19, 20, 1, 0, 0, 0, [1, 1, 1, 1]>, <21, 20, 21, 1, 0, 0, 0, [1, 1, 1, 1]>, <22, 21, 22, 1, 0, 0, 0, [1, 1, 1, 1]>, <23, 22, 23, 1, 0, 0, 0, [1, 1, 1, 1]>, <24, 23, 24, 1, 0, 0, 0, [1, 1, 1, 1]>, <25, 24, 25, 1, 0, 0, 0, [1, 1, 1, 1]>, <26, 25, 26, 1, 0, 0, 0, [1, 1, 1, 1]>, <27, 26, 27, 1, 0, 0, 0, [1, 1, 1, 1]>, <28, 27, 28, 1, 0, 0, 0, [1, 1, 1, 1]>, <29, 28, 29, 1, 0, 0, 0, [1, 1, 1, 1]>, <30, 29, 30, 1, 0, 0, 0, [1, 1, 1, 1]>, <31, 30, 31, 1, 0, 0, 0, [1, 1, 1, 1]>, <32, 31, 32, 1, 0, 0, 0, [1, 1, 1, 1]>, <33, 32, 33, 1, 0, 0, 0, [1, 1, 1, 1]>, <34, 33, 34, 1, 0, 0, 0, [1, 1, 1, 1]>, <35, 34, 35, 1, 0, 0, 0, [1, 1, 1, 1]>, <36, 0, 17, 17, 1, 0, 0, [1, 0, 1, 1]>, <37, 1, 18, 17, 1, 0, 0, [1, 0, 1, 1]>, <38, 2, 19, 17, 1, 0, 0, [1, 0, 1, 1]>, <39, 3, 20, 17, 1, 0, 0, [1, 0, 1, 1]>, <40, 4, 21, 17, 1, 0, 0, [1, 0, 1, 1]>, <41, 5, 22, 17, 1, 0, 0, [1, 0, 1, 1]>, <42, 6, 23, 17, 1, 0, 0, [1, 0, 1, 1]>, <43, 9, 26, 17, 1, 0, 0, [1, 0, 1, 1]>, <44, 10, 27, 17, 1, 0, 0, [1, 0, 1, 1]>, <45, 11, 28, 17, 1, 0, 0, [1, 0, 1, 1]>, <46, 12, 29, 17, 1, 0, 0, [1, 0, 1, 1]>, <47, 13, 30, 17, 1, 0, 0, [1, 0, 1, 1]>, <48, 14, 31, 17, 1, 0, 0, [1, 0, 1, 1]>, <49, 15, 32, 17, 1, 0, 0, [1, 0, 1, 1]>, <50, 16, 33, 17, 1, 0, 0, [1, 0, 1, 1]>, <51, 17, 34, 17, 1, 0, 0, [1, 0, 1, 1]>, <52, 18, 35, 17, 1, 0, 0, [1, 0, 1, 1]>, <53, 0, 18, 18, 2, 0, 0, [1, 1, 1, 0]>, <54, 1, 19, 18, 2, 0, 0, [1, 1, 1, 0]>, <55, 2, 20, 18, 2, 0, 0, [1, 1, 1, 0]>, <56, 3, 21, 18, 2, 0, 0, [1, 1, 1, 0]>, <57, 4, 22, 18, 2, 0, 0, [1, 1, 1, 0]>, <58, 5, 23, 18, 2, 0, 0, [1, 1, 1, 0]>, <59, 6, 24, 18, 2, 0, 0, [1, 1, 1, 0]>, <60, 8, 26, 18, 2, 0, 0, [1, 1, 1, 0]>, <61, 9, 27, 18, 2, 0, 0, [1, 1, 1, 0]>, <62, 10, 28, 18, 2, 0, 0, [1, 1, 1, 0]>, <63, 11, 29, 18, 2, 0, 0, [1, 1, 1, 0]>, <64, 12, 30, 18, 2, 0, 0, [1, 1, 1, 0]>, <65, 13, 31, 18, 2, 0, 0, [1, 1, 1, 0]>, <66, 14, 32, 18, 2, 0, 0, [1, 1, 1, 0]>, <67, 15, 33, 18, 2, 0, 0, [1, 1, 1, 0]>, <68, 16, 34, 18, 2, 0, 0, [1, 1, 1, 0]>, <69, 17, 35, 18, 2, 0, 0, [1, 1, 1, 0]>, <70, 0, 20, 20, 3, 0, 1, [0, 1, 1, 1]>, <71, 1, 21, 20, 3, 0, 1, [0, 1, 1, 1]>, <72, 2, 22, 20, 3, 0, 1, [0, 1, 1, 1]>, <73, 3, 23, 20, 3, 0, 1, [0, 1, 1, 1]>, <74, 4, 24, 20, 3, 0, 1, [0, 1, 1, 1]>, <75, 5, 25, 20, 3, 0, 1, [0, 1, 1, 1]>, <76, 6, 26, 20, 3, 0, 1, [0, 1, 1, 1]>, <77, 7, 27, 20, 3, 0, 1, [0, 1, 1, 1]>, <78, 8, 28, 20, 3, 0, 1, [0, 1, 1, 1]>, <79, 9, 29, 20, 3, 0, 1, [0, 1, 1, 1]>, <80, 10, 30, 20, 3, 0, 1, [0, 1, 1, 1]>, <81, 11, 31, 20, 3, 0, 1, [0, 1, 1, 1]>, <82, 12, 32, 20, 3, 0, 1, [0, 1, 1, 1]>, <83, 13, 33, 20, 3, 0, 1, [0, 1, 1, 1]>, <84, 14, 34, 20, 3, 0, 1, [0, 1, 1, 1]>, <85, 15, 35, 20, 3, 0, 1, [0, 1, 1, 1]>, <86, 0, 18, 18, 4, 0, 0, [1, 0, 1, 1]>, <87, 1, 19, 18, 4, 0, 0, [1, 0, 1, 1]>, <88, 2, 20, 18, 4, 0, 0, [1, 0, 1, 1]>, <89, 3, 21, 18, 4, 0, 0, [1, 0, 1, 1]>, <90, 4, 22, 18, 4, 0, 0, [1, 0, 1, 1]>, <91, 5, 23, 18, 4, 0, 0, [1, 0, 1, 1]>, <92, 6, 24, 18, 4, 0, 0, [1, 0, 1, 1]>, <93, 8, 26, 18, 4, 0, 0, [1, 0, 1, 1]>, <94, 9, 27, 18, 4, 0, 0, [1, 0, 1, 1]>, <95, 10, 28, 18, 4, 0, 0, [1, 0, 1, 1]>, <96, 11, 29, 18, 4, 0, 0, [1, 0, 1, 1]>, <97, 12, 30, 18, 4, 0, 0, [1, 0, 1, 1]>, <98, 13, 31, 18, 4, 0, 0, [1, 0, 1, 1]>, <99, 14, 32, 18, 4, 0, 0, [1, 0, 1, 1]>, <100, 15, 33, 18, 4, 0, 0, [1, 0, 1, 1]>, <101, 16, 34, 18, 4, 0, 0, [1, 0, 1, 1]>, <102, 17, 35, 18, 4, 0, 0, [1, 0, 1, 1]>, <103, 0, 19, 19, 5, 0, 0, [1, 1, 1, 0]>, <104, 1, 20, 19, 5, 0, 0, [1, 1, 1, 0]>, <105, 2, 21, 19, 5, 0, 0, [1, 1, 1, 0]>, <106, 3, 22, 19, 5, 0, 0, [1, 1, 1, 0]>, <107, 4, 23, 19, 5, 0, 0, [1, 1, 1, 0]>, <108, 5, 24, 19, 5, 0, 0, [1, 1, 1, 0]>, <109, 6, 25, 19, 5, 0, 0, [1, 1, 1, 0]>, <110, 7, 26, 19, 5, 0, 0, [1, 1, 1, 0]>, <111, 8, 27, 19, 5, 0, 0, [1, 1, 1, 0]>, <112, 9, 28, 19, 5, 0, 0, [1, 1, 1, 0]>, <113, 10, 29, 19, 5, 0, 0, [1, 1, 1, 0]>, <114, 11, 30, 19, 5, 0, 0, [1, 1, 1, 0]>, <115, 12, 31, 19, 5, 0, 0, [1, 1, 1, 0]>, <116, 13, 32, 19, 5, 0, 0, [1, 1, 1, 0]>, <117, 14, 33, 19, 5, 0, 0, [1, 1, 1, 0]>, <118, 15, 34, 19, 5, 0, 0, [1, 1, 1, 0]>, <119, 16, 35, 19, 5, 0, 0, [1, 1, 1, 0]>, <120, 0, 17, 17, 6, 0, 1, [0, 1, 1, 1]>, <121, 1, 18, 17, 6, 0, 1, [0, 1, 1, 1]>, <122, 2, 19, 17, 6, 0, 1, [0, 1, 1, 1]>, <123, 3, 20, 17, 6, 0, 1, [0, 1, 1, 1]>, <124, 4, 21, 17, 6, 0, 1, [0, 1, 1, 1]>, <125, 5, 22, 17, 6, 0, 1, [0, 1, 1, 1]>, <126, 6, 23, 17, 6, 0, 1, [0, 1, 1, 1]>, <127, 9, 26, 17, 6, 0, 1, [0, 1, 1, 1]>, <128, 10, 27, 17, 6, 0, 1, [0, 1, 1, 1]>, <129, 11, 28, 17, 6, 0, 1, [0, 1, 1, 1]>, <130, 12, 29, 17, 6, 0, 1, [0, 1, 1, 1]>, <131, 13, 30, 17, 6, 0, 1, [0, 1, 1, 1]>, <132, 14, 31, 17, 6, 0, 1, [0, 1, 1, 1]>, <133, 15, 32, 17, 6, 0, 1, [0, 1, 1, 1]>, <134, 16, 33, 17, 6, 0, 1, [0, 1, 1, 1]>, <135, 17, 34, 17, 6, 0, 1, [0, 1, 1, 1]>, <136, 18, 35, 17, 6, 0, 1, [0, 1, 1, 1]>, <137, 0, 22, 22, 7, 0, 0, [1, 1, 1, 0]>, <138, 1, 23, 22, 7, 0, 0, [1, 1, 1, 0]>, <139, 2, 24, 22, 7, 0, 0, [1, 1, 1, 0]>, <140, 3, 25, 22, 7, 0, 0, [1, 1, 1, 0]>, <141, 4, 26, 22, 7, 0, 0, [1, 1, 1, 0]>, <142, 5, 27, 22, 7, 0, 0, [1, 1, 1, 0]>, <143, 6, 28, 22, 7, 0, 0, [1, 1, 1, 0]>, <144, 7, 29, 22, 7, 0, 0, [1, 1, 1, 0]>, <145, 8, 30, 22, 7, 0, 0, [1, 1, 1, 0]>, <146, 9, 31, 22, 7, 0, 0, [1, 1, 1, 0]>, <147, 10, 32, 22, 7, 0, 0, [1, 1, 1, 0]>, <148, 11, 33, 22, 7, 0, 0, [1, 1, 1, 0]>, <149, 12, 34, 22, 7, 0, 0, [1, 1, 1, 0]>, <150, 13, 35, 22, 7, 0, 0, [1, 1, 1, 0]>};
